p edge 320 1308
c 6029
e 0 22 6 0
e 0 134 47 1
e 0 133 37 2
e 0 294 25 3
e 0 126 37 4
e 0 235 7 5
e 0 9 17 7
e 0 295 16 9
e 1 194 1 10
e 1 109 1 11
e 1 208 1 12
e 1 15 1 13
e 1 261 8 14
e 2 127 1 15
e 2 184 1 16
e 3 20 1 20
e 3 32 2 21
e 3 249 1 23
e 3 198 2 24
e 3 250 1 25
e 4 191 1 31
e 5 258 2 33
e 5 61 2 34
e 5 255 1 35
e 5 76 1 36
e 5 186 13 37
e 6 174 1 38
e 6 25 1 39
e 6 219 1 41
e 6 60 1 42
e 6 74 1 43
e 6 85 1 44
e 6 111 1 45
e 6 203 35 46
e 7 307 6 47
e 7 266 24 48
e 7 245 46 50
e 7 72 24 51
e 7 301 49 52
e 7 178 34 53
e 7 68 16 54
e 7 298 22 55
e 8 278 30 56
e 8 18 11 58
e 8 303 36 59
e 8 33 26 60
e 8 121 17 62
e 8 186 35 63
e 8 199 21 64
e 8 300 34 66
e 8 307 24 67
e 9 139 18 68
e 9 171 23 69
e 9 97 29 70
e 9 54 6 71
e 9 145 44 72
e 9 102 21 73
e 9 43 33 74
e 9 150 24 75
e 9 232 47 76
e 10 189 1 77
e 10 293 1 78
e 10 249 1 80
e 10 96 2 81
e 10 289 3 82
e 11 56 1 83
e 11 163 1 86
e 11 267 1 89
e 12 29 2 91
e 12 92 2 94
e 13 132 1 96
e 13 121 2 97
e 13 85 2 99
e 13 114 2 101
e 13 296 32 102
e 14 281 1 103
e 14 73 1 104
e 14 42 1 106
e 14 34 1 107
e 14 86 1 108
e 14 265 2 109
e 14 272 1 111
e 15 36 18 115
e 15 40 1 116
e 16 262 1 119
e 16 310 1 126
e 17 129 10 127
e 17 73 46 128
e 17 232 20 132
e 17 241 38 133
e 17 251 10 134
e 17 294 21 135
e 18 69 49 137
e 18 278 40 139
e 18 126 1 141
e 18 22 24 142
e 18 143 17 143
e 18 178 46 144
e 18 282 21 145
e 20 40 1 152
e 20 105 2 156
e 20 175 3 157
e 21 294 25 160
e 21 190 2 161
e 23 158 1 169
e 23 105 1 170
e 23 302 1 171
e 23 146 2 172
e 23 217 1 174
e 23 245 1 175
e 24 268 10 176
e 24 163 7 177
e 24 90 3 178
e 24 249 24 179
e 24 142 22 181
e 24 174 4 182
e 24 209 17 183
e 24 257 40 184
e 24 273 11 185
e 25 230 1 188
e 25 65 2 189
e 25 254 1 194
e 25 272 2 195
e 25 307 1 196
e 26 187 7 197
e 26 275 48 198
e 26 237 20 199
e 26 42 18 201
e 26 207 26 203
e 26 214 1 204
e 26 236 33 205
e 26 264 38 206
e 27 143 1 207
e 27 65 1 209
e 27 78 1 210
e 27 268 1 211
e 28 90 1 212
e 28 262 1 216
e 28 279 2 218
e 28 319 1 219
e 29 56 1 220
e 29 42 1 221
e 29 265 1 222
e 29 224 1 223
e 29 33 2 224
e 29 54 2 225
e 29 154 2 227
e 29 231 1 228
e 30 242 3 229
e 30 42 1 230
e 30 77 1 231
e 30 146 1 232
e 30 181 2 233
e 30 200 1 234
e 30 205 1 235
e 30 270 1 236
e 31 133 2 239
e 32 49 1 244
e 32 205 1 245
e 32 64 2 249
e 32 98 1 250
e 32 125 1 251
e 32 168 1 252
e 32 274 13 256
e 32 292 1 257
e 32 301 25 258
e 33 71 1 261
e 33 72 28 262
e 33 260 1 265
e 33 301 39 266
e 34 250 1 268
e 34 133 1 270
e 34 173 1 272
e 34 245 2 273
e 35 176 1 275
e 35 177 1 276
e 35 170 2 277
e 35 113 1 278
e 35 124 1 279
e 35 164 1 280
e 35 205 1 281
e 35 278 2 282
e 36 309 48 285
e 36 72 36 286
e 36 73 5 287
e 36 109 14 288
e 36 204 19 289
e 36 239 38 290
e 37 244 1 291
e 37 45 1 292
e 37 195 1 293
e 37 169 1 294
e 37 44 1 295
e 37 50 1 296
e 37 51 1 297
e 37 226 1 298
e 38 174 1 300
e 38 104 1 301
e 38 307 1 302
e 38 95 1 303
e 38 48 3 304
e 38 79 24 305
e 38 132 1 306
e 38 191 1 307
e 38 248 1 308
e 38 281 1 309
e 39 244 3 310
e 39 250 1 312
e 39 253 1 313
e 39 101 1 314
e 39 118 2 315
e 39 189 1 316
e 40 41 1 318
e 40 114 1 319
e 40 95 2 320
e 40 119 1 321
e 40 133 1 322
e 40 172 1 323
e 40 318 1 324
e 41 290 1 325
e 41 109 1 326
e 41 213 1 332
e 41 242 16 333
e 42 125 2 334
e 42 294 45 337
e 43 94 1 340
e 43 166 2 341
e 43 314 48 343
e 44 117 1 344
e 44 152 2 345
e 44 90 2 347
e 44 287 1 349
e 45 235 26 350
e 45 224 1 352
e 45 70 1 353
e 45 152 1 354
e 45 170 1 355
e 45 193 1 356
e 45 215 1 357
e 45 267 1 358
e 46 138 1 360
e 46 263 1 361
e 46 52 1 362
e 47 261 3 366
e 47 91 2 367
e 47 225 1 370
e 48 122 3 371
e 48 103 16 373
e 48 274 8 374
e 48 203 31 375
e 48 98 42 377
e 48 123 37 378
e 49 181 2 379
e 49 221 1 381
e 49 198 1 382
e 49 165 1 383
e 50 97 1 384
e 50 101 2 386
e 50 92 1 387
e 50 138 1 388
e 51 214 1 390
e 51 190 1 394
e 52 205 2 396
e 52 264 1 397
e 52 160 1 398
e 52 59 1 399
e 52 114 2 400
e 52 263 1 403
e 52 275 38 404
e 53 205 1 405
e 53 115 1 406
e 53 70 2 407
e 53 199 1 409
e 53 229 1 410
e 53 256 2 411
e 54 261 1 412
e 54 80 3 413
e 55 172 1 422
e 55 203 4 423
e 55 299 45 425
e 56 168 1 426
e 56 295 1 427
e 56 267 1 428
e 56 201 2 429
e 56 187 1 430
e 56 192 1 431
e 56 307 1 432
e 57 79 32 435
e 57 94 1 437
e 57 126 32 438
e 58 75 1 443
e 58 165 1 444
e 58 215 1 445
e 58 247 1 446
e 58 267 1 447
e 59 238 35 449
e 59 100 1 451
e 60 137 1 454
e 60 269 1 455
e 60 65 2 456
e 61 83 1 458
e 61 300 1 459
e 61 133 1 461
e 61 301 49 462
e 62 255 2 463
e 62 194 1 464
e 62 183 1 465
e 62 86 2 466
e 62 118 2 467
e 62 192 1 468
e 62 205 1 469
e 62 222 1 471
e 62 230 2 472
e 62 256 2 473
e 63 175 2 476
e 63 259 1 481
e 64 205 2 482
e 64 209 1 483
e 64 73 1 485
e 65 142 1 486
e 65 188 2 487
e 66 127 1 493
e 66 278 1 495
e 67 261 33 497
e 67 251 1 498
e 67 249 1 499
e 67 151 1 500
e 67 306 1 502
e 68 141 1 505
e 68 112 3 506
e 68 163 2 507
e 69 309 1 509
e 69 269 1 510
e 69 251 1 512
e 69 270 1 513
e 69 305 1 514
e 70 118 1 515
e 70 117 1 516
e 70 170 1 517
e 70 128 1 518
e 70 269 2 519
e 71 213 1 520
e 71 149 1 521
e 71 81 1 522
e 71 284 1 524
e 72 190 15 525
e 72 73 33 527
e 72 150 2 528
e 73 110 1 531
e 73 150 39 532
e 74 242 41 535
e 74 79 48 536
e 75 100 1 544
e 75 253 1 548
e 76 168 1 551
e 76 88 1 554
e 76 116 1 555
e 76 216 1 556
e 77 309 1 557
e 77 269 1 558
e 77 158 1 559
e 77 209 1 560
e 77 116 2 562
e 77 174 1 563
e 77 188 1 564
e 78 118 1 566
e 78 135 1 567
e 78 108 1 569
e 78 123 2 570
e 78 143 1 571
e 78 194 1 572
e 78 259 1 573
e 79 97 4 574
e 79 152 13 575
e 79 260 30 576
e 79 103 39 577
e 79 217 44 579
e 79 236 18 580
e 80 290 28 581
e 80 172 10 582
e 80 229 10 583
e 80 103 34 585
e 80 126 25 586
e 80 266 23 587
e 80 314 10 588
e 80 237 14 589
e 81 120 1 590
e 81 213 1 595
e 82 312 33 598
e 82 184 1 599
e 82 125 1 600
e 82 305 1 602
e 83 128 1 605
e 84 200 1 606
e 84 117 1 607
e 84 251 1 608
e 84 125 1 610
e 84 196 1 611
e 85 255 1 612
e 85 314 18 613
e 85 124 1 614
e 85 148 1 615
e 85 296 42 617
e 86 101 1 618
e 86 225 1 619
e 86 98 2 622
e 86 106 1 623
e 86 107 2 624
e 86 166 1 625
e 86 206 1 626
e 86 223 1 627
e 86 244 1 628
e 87 113 1 630
e 87 90 1 632
e 88 119 2 633
e 88 118 1 634
e 88 152 3 635
e 88 250 1 636
e 89 290 1 637
e 89 299 7 638
e 89 230 1 642
e 90 118 1 646
e 90 144 1 647
e 90 171 13 648
e 91 291 1 652
e 91 254 1 653
e 91 269 1 655
e 92 137 1 657
e 92 180 1 658
e 92 219 1 659
e 93 132 1 663
e 93 107 2 664
e 93 159 1 666
e 93 179 1 667
e 94 289 1 669
e 94 116 1 671
e 94 228 1 672
e 94 246 1 673
e 94 275 12 674
e 94 277 2 675
e 95 213 1 676
e 95 287 1 677
e 96 156 1 679
e 96 228 2 680
e 96 168 2 682
e 96 298 1 683
e 97 223 1 684
e 97 116 3 685
e 97 300 1 690
e 98 261 4 691
e 98 135 1 692
e 98 191 1 693
e 98 227 1 694
e 98 286 1 696
e 98 315 1 697
e 99 299 21 698
e 100 193 2 703
e 100 274 4 704
e 100 316 2 705
e 101 145 1 708
e 101 180 1 710
e 101 209 1 711
e 102 317 46 717
e 103 294 40 718
e 103 300 11 719
e 103 266 49 721
e 103 127 21 722
e 103 314 14 723
e 104 171 23 724
e 104 307 1 726
e 104 237 27 727
e 104 180 2 729
e 104 204 1 731
e 105 141 1 733
e 105 168 2 734
e 105 230 1 735
e 105 280 1 736
e 105 304 1 737
e 105 312 6 738
e 105 315 1 739
e 107 183 1 743
e 107 138 1 746
e 107 195 1 747
e 107 212 1 748
e 107 285 1 749
e 109 154 1 755
e 109 225 2 756
e 109 204 1 757
e 110 315 1 758
e 110 229 1 759
e 110 225 2 760
e 110 117 1 761
e 110 220 1 763
e 111 214 1 765
e 112 191 1 768
e 112 143 1 769
e 112 216 2 773
e 112 219 1 774
e 113 122 1 775
e 113 226 1 776
e 114 203 43 777
e 115 175 1 784
e 117 257 1 787
e 117 303 2 788
e 117 139 2 789
e 120 152 2 799
e 120 140 1 801
e 120 213 2 802
e 120 272 1 803
e 121 262 1 804
e 121 298 2 805
e 121 124 1 806
e 121 183 1 807
e 121 202 2 808
e 121 244 1 809
e 121 259 1 810
e 121 263 1 811
e 122 185 2 813
e 122 163 1 817
e 122 281 1 820
e 123 131 1 822
e 123 143 1 823
e 123 317 2 825
e 125 211 2 829
e 125 288 1 830
e 126 266 47 831
e 126 153 21 832
e 126 171 8 834
e 126 179 28 835
e 126 217 31 836
e 127 217 25 837
e 127 146 1 838
e 127 187 1 839
e 127 198 1 840
e 127 263 1 841
e 128 177 1 842
e 128 283 1 843
e 128 201 2 844
e 128 159 1 845
e 128 244 1 846
e 128 252 1 847
e 129 144 1 848
e 129 185 2 850
e 130 292 1 852
e 131 312 9 854
e 131 315 1 855
e 131 216 1 856
e 131 200 1 857
e 131 242 3 858
e 132 136 2 860
e 132 222 1 861
e 132 210 3 862
e 132 269 1 863
e 133 217 1 864
e 133 153 2 865
e 133 163 1 866
e 133 260 1 868
e 134 213 2 869
e 134 219 2 870
e 134 216 1 871
e 135 204 1 875
e 135 274 8 876
e 135 150 2 877
e 135 238 19 878
e 136 239 1 879
e 136 235 37 881
e 137 307 1 884
e 137 287 1 885
e 137 193 1 886
e 137 213 1 887
e 137 278 2 888
e 138 209 1 893
e 139 259 1 896
e 139 283 3 897
e 139 305 2 898
e 140 214 1 900
e 140 143 1 901
e 140 184 1 907
e 141 219 1 909
e 141 166 2 910
e 141 190 1 911
e 141 184 1 912
e 141 167 1 913
e 142 171 14 917
e 143 155 1 920
e 143 243 1 922
e 144 199 1 924
e 144 213 2 925
e 144 313 1 926
e 144 229 1 928
e 144 264 1 929
e 145 304 6 930
e 145 149 9 931
e 145 173 12 932
e 145 181 5 933
e 146 238 13 935
e 146 161 1 936
e 146 207 20 937
e 146 221 1 938
e 146 225 1 939
e 146 265 1 940
e 147 256 1 941
e 147 296 6 943
e 147 213 1 944
e 147 223 1 945
e 147 306 1 947
e 148 216 1 949
e 148 211 2 950
e 148 307 1 952
e 150 199 47 955
e 150 235 43 956
e 150 157 15 957
e 150 258 17 958
e 151 179 29 962
e 151 266 3 964
e 151 301 6 965
e 152 295 1 968
e 152 305 2 969
e 153 267 2 973
e 154 223 1 977
e 155 239 1 983
e 156 292 2 986
e 157 307 2 990
e 157 295 1 991
e 158 239 1 993
e 158 161 3 994
e 159 231 1 996
e 159 206 1 997
e 159 254 1 998
e 160 172 1 1001
e 160 219 1 1002
e 160 282 1 1004
e 161 204 1 1006
e 161 281 1 1007
e 161 241 1 1008
e 161 319 2 1010
e 162 256 1 1011
e 162 260 1 1013
e 164 232 1 1015
e 164 182 1 1017
e 164 317 2 1018
e 166 285 1 1025
e 167 285 2 1026
e 168 245 2 1027
e 168 260 1 1029
e 169 283 2 1030
e 171 236 36 1034
e 171 178 38 1035
e 171 186 6 1036
e 172 280 1 1037
e 172 196 1 1038
e 172 227 1 1039
e 173 254 2 1043
e 173 287 1 1044
e 174 258 1 1045
e 174 312 21 1047
e 176 269 2 1051
e 177 299 11 1052
e 177 198 1 1055
e 178 312 23 1058
e 178 235 32 1059
e 178 242 42 1060
e 178 186 34 1061
e 179 268 40 1062
e 179 274 45 1063
e 179 294 18 1064
e 179 312 31 1065
e 179 295 36 1066
e 180 209 2 1068
e 180 225 2 1069
e 180 262 1 1070
e 181 306 1 1071
e 181 206 1 1072
e 181 303 1 1073
e 182 184 1 1074
e 182 192 1 1076
e 182 233 2 1077
e 182 268 1 1078
e 183 305 2 1079
e 184 253 1 1082
e 184 219 2 1083
e 184 277 2 1084
e 184 217 2 1085
e 185 269 1 1086
e 185 298 1 1087
e 185 218 1 1088
e 185 248 1 1089
e 185 292 1 1090
e 186 242 27 1093
e 187 215 1 1095
e 188 232 1 1096
e 188 231 2 1098
e 188 255 1 1099
e 188 315 1 1100
e 189 211 1 1101
e 189 253 1 1102
e 190 206 1 1105
e 190 283 1 1106
e 191 239 1 1107
e 191 216 1 1108
e 193 198 1 1113
e 194 216 2 1116
e 197 277 1 1130
e 201 247 1 1132
e 201 262 2 1133
e 201 216 1 1134
e 201 222 1 1135
e 202 237 18 1137
e 203 214 45 1139
e 203 251 5 1140
e 204 255 1 1142
e 205 312 19 1143
e 207 236 30 1147
e 207 217 45 1148
e 207 234 12 1150
e 208 267 1 1153
e 209 220 1 1154
e 209 279 1 1155
e 209 302 2 1156
e 210 317 2 1157
e 211 299 5 1161
e 212 225 3 1162
e 212 272 2 1165
e 214 216 2 1169
e 214 239 1 1171
e 214 242 9 1172
e 215 314 1 1173
e 215 231 1 1174
e 216 279 1 1175
e 217 235 21 1178
e 218 307 1 1179
e 218 253 1 1180
e 219 273 2 1181
e 220 286 1 1183
e 223 248 1 1187
e 224 277 1 1189
e 224 268 1 1192
e 225 304 1 1193
e 225 243 2 1194
e 225 303 1 1195
e 226 227 2 1197
e 226 236 1 1198
e 228 238 15 1201
e 229 262 1 1204
e 230 248 2 1206
e 231 261 37 1208
e 231 290 1 1210
e 232 290 1 1212
e 233 237 1 1214
e 234 295 1 1216
e 234 283 2 1217
e 235 315 28 1221
e 235 258 41 1222
e 235 294 16 1223
e 235 236 31 1224
e 236 300 36 1225
e 236 292 40 1226
e 236 275 48 1227
e 236 301 5 1228
e 237 243 17 1231
e 238 275 30 1232
e 238 301 9 1233
e 239 243 1 1235
e 240 306 1 1236
e 240 317 1 1237
e 241 287 1 1239
e 242 247 10 1240
e 242 276 13 1241
e 245 268 1 1242
e 246 259 1 1244
e 246 253 1 1245
e 248 260 1 1246
e 253 281 1 1250
e 253 265 1 1251
e 254 298 3 1252
e 255 256 1 1253
e 256 289 2 1255
e 256 279 2 1256
e 256 265 1 1257
e 257 261 18 1258
e 257 258 1 1259
e 257 310 1 1260
e 259 283 1 1262
e 261 311 16 1265
e 262 281 1 1266
e 262 271 2 1267
e 265 306 1 1268
e 266 299 15 1269
e 267 312 36 1271
e 272 287 2 1275
e 274 300 40 1277
e 274 314 13 1278
e 275 282 38 1279
e 275 306 44 1280
e 276 296 34 1281
e 276 310 1 1282
e 277 318 1 1284
e 277 306 2 1285
e 277 297 1 1286
e 279 290 1 1287
e 279 319 2 1288
e 280 283 1 1289
e 281 296 30 1290
e 281 289 1 1291
e 283 297 2 1292
e 283 309 1 1293
e 283 313 1 1294
e 286 311 2 1296
e 288 292 1 1297
e 290 312 4 1298
e 291 300 1 1299
e 292 297 2 1300
e 297 306 1 1303
e 302 314 42 1306
